============================[ Problem Statistics ]=============================|                                                                             ||  Number of variables:          4242                                         ||  Number of clauses:           10241                                         ||  Parse time:                   0.62 s                                       ||                                                                             |============================[ Search Statistics ]==============================| Conflicts |          ORIGINAL         |          LEARNT          | Progress ||           |    Vars  Clauses Literals |    Limit  Clauses Lit/Cl |          |===============================================================================|       100 |    1591     6446  1002987 |     2363      100     53 | 62.501 % ||       250 |    1591     6446  1002987 |     2599      250     75 | 62.495 % |===============================================================================restarts              : 3conflicts             : 345            (365 /sec)decisions             : 607            (0.00 % random) (642 /sec)propagations          : 11940          (12622 /sec)conflict literals     : 27930          (94.64 % deleted)CPU time              : 0.946 sSATISFIABLE